(set-logic QF_S)
(declare-fun V1 () String )
(declare-fun V33 () String )
(declare-fun V51 () String )
(declare-fun V6 () String )
(declare-fun V36 () String )
(declare-fun V8 () String )
(declare-fun V9 () String )
(declare-fun V15 () String )
(declare-fun V31 () String )
(declare-fun V52 () String )
(declare-fun V34 () String )
(declare-fun V21 () String )
(declare-fun V45 () String )
(declare-fun V48 () String )
(declare-fun V25 () String )
(declare-fun V47 () String )
(declare-fun V11 () String )
(declare-fun V26 () String )
(declare-fun V3 () String )
(declare-fun V20 () String )
(declare-fun V17 () String )
(declare-fun V32 () String )
(declare-fun V5 () String )
(declare-fun V27 () String )
(declare-fun V19 () String )
(declare-fun V42 () String )
(declare-fun V0 () String )
(declare-fun V30 () String )
(declare-fun V40 () String )
(declare-fun V22 () String )
(declare-fun V44 () String )
(declare-fun V10 () String )
(declare-fun V49 () String )
(declare-fun V46 () String )
(declare-fun V7 () String )
(declare-fun V35 () String )
(declare-fun V38 () String )
(declare-fun V28 () String )
(declare-fun V24 () String )
(declare-fun V16 () String )
(declare-fun V37 () String )
(declare-fun V23 () String )
(declare-fun V39 () String )
(declare-fun V50 () String )
(declare-fun V41 () String )
(declare-fun V29 () String )
(declare-fun V43 () String )
(declare-fun V13 () String )
(declare-fun V14 () String )
(declare-fun V4 () String )
(declare-fun V2 () String )
(declare-fun V18 () String )
(declare-fun V12 () String )
(assert (= "" "U" ) )
(assert (= "" V37 ) )
(assert (= "," V8 ) )
(assert (= "/" V0 ) )
(assert (= ":" V17 ) )
(assert (= "U" V13 ) )
(assert (= V2 (str.++ (str.++ V39 "@" ) V40 ) ) )
(assert (= V2 (str.++ (str.++ V5 V18 ) V19 ) ) )
(assert (= V2 (str.++ (str.++ V5 V6 ) V7 ) ) )
(assert (= V2 (str.++ (str.++ V29 V12 ) V25 ) ) )
(assert (= V2 (str.++ (str.++ V23 V24 ) V25 ) ) )
(assert (= V12 (str.++ (str.++ V48 "," ) V49 ) ) )
(assert (= V12 (str.++ (str.++ V9 V10 ) V11 ) ) )
(assert (= V12 (str.++ (str.++ V33 V34 ) V35 ) ) )
(assert (= V10 (str.++ (str.++ V36 V37 ) V38 ) ) )
(assert (= V10 (str.++ (str.++ V46 "U" ) V47 ) ) )
(assert (= V10 (str.++ (str.++ V30 V31 ) V32 ) ) )
(assert (= V10 (str.++ (str.++ V14 V15 ) V16 ) ) )
(assert (= V52 (str.++ (str.++ V50 "u" ) V51 ) ) )
(assert (= V15 (str.++ (str.++ V50 "U" ) V51 ) ) )
(assert (= V4 (str.++ (str.++ V26 V27 ) V28 ) ) )
(assert (= V4 (str.++ (str.++ V41 "/" ) V42 ) ) )
(assert (= V4 (str.++ (str.++ V1 V2 ) V3 ) ) )
(assert (= V22 (str.++ (str.++ V20 V4 ) V21 ) ) )
(assert (= V22 (str.++ (str.++ V44 "://" ) V45 ) ) )
(assert (= V22 (str.++ "mongodb://" V43 ) ) )
( check-sat )
